; SPDX-License-Identifier: MPL-2.0
; Copyright (c) 2026 The RIINA Authors.
; Auto-generated from 02_FORMAL/coq/domains/mobile_os/TrackingPrevention.v (25 validations)
; Generated by scripts/generate-full-stack.py
;
; Translation Validation for TrackingPrevention
; Layer 9: Verifies compiler backend preserves formal semantics.
; Each assertion checks source IR ≡ target code for a proven property.

(set-logic QF_LIA)
(set-option :produce-models true)

; IR node representation
(declare-sort IRNode 0)
(declare-sort TargetNode 0)

; consent_scope_invariant: source semantics (matches Coq)
(declare-fun source_consent_scope_invariant () Bool)
(declare-fun target_consent_scope_invariant () Bool)
(assert (= source_consent_scope_invariant target_consent_scope_invariant))

; explicit_consent: source semantics (matches Coq)
(declare-fun source_explicit_consent () Bool)
(declare-fun target_explicit_consent () Bool)
(assert (= source_explicit_consent target_explicit_consent))

; tracks: source semantics (matches Coq)
(declare-fun source_tracks () Bool)
(declare-fun target_tracks () Bool)
(assert (= source_tracks target_tracks))

; privacy_state_well_formed: source semantics (matches Coq)
(declare-fun source_privacy_state_well_formed () Bool)
(declare-fun target_privacy_state_well_formed () Bool)
(assert (= source_privacy_state_well_formed target_privacy_state_well_formed))

; tracking_requested: source semantics (matches Coq)
(declare-fun source_tracking_requested () Bool)
(declare-fun target_tracking_requested () Bool)
(assert (= source_tracking_requested target_tracking_requested))

; tracking_approved: source semantics (matches Coq)
(declare-fun source_tracking_approved () Bool)
(declare-fun target_tracking_approved () Bool)
(assert (= source_tracking_approved target_tracking_approved))

; tracking_allowed: source semantics (matches Coq)
(declare-fun source_tracking_allowed () Bool)
(declare-fun target_tracking_allowed () Bool)
(assert (= source_tracking_allowed target_tracking_allowed))

; tracking_event_well_formed: source semantics (matches Coq)
(declare-fun source_tracking_event_well_formed () Bool)
(declare-fun target_tracking_event_well_formed () Bool)
(assert (= source_tracking_event_well_formed target_tracking_event_well_formed))

; cross_site_tracking_blocked: source semantics (matches Coq)
(declare-fun source_cross_site_tracking_blocked () Bool)
(declare-fun target_cross_site_tracking_blocked () Bool)
(assert (= source_cross_site_tracking_blocked target_cross_site_tracking_blocked))

; fingerprinting_prevented: source semantics (matches Coq)
(declare-fun source_fingerprinting_prevented () Bool)
(declare-fun target_fingerprinting_prevented () Bool)
(assert (= source_fingerprinting_prevented target_fingerprinting_prevented))

; third_party_cookies_blocked: source semantics (matches Coq)
(declare-fun source_third_party_cookies_blocked () Bool)
(declare-fun target_third_party_cookies_blocked () Bool)
(assert (= source_third_party_cookies_blocked target_third_party_cookies_blocked))

; tracking_pixel_detected: source semantics (matches Coq)
(declare-fun source_tracking_pixel_detected () Bool)
(declare-fun target_tracking_pixel_detected () Bool)
(assert (= source_tracking_pixel_detected target_tracking_pixel_detected))

; advertising_id_resettable: source semantics (matches Coq)
(declare-fun source_advertising_id_resettable () Bool)
(declare-fun target_advertising_id_resettable () Bool)
(assert (= source_advertising_id_resettable target_advertising_id_resettable))

; app_tracking_permission_required: source semantics (matches Coq)
(declare-fun source_app_tracking_permission_required () Bool)
(declare-fun target_app_tracking_permission_required () Bool)
(assert (= source_app_tracking_permission_required target_app_tracking_permission_required))

; link_decoration_stripped: source semantics (matches Coq)
(declare-fun source_link_decoration_stripped () Bool)
(declare-fun target_link_decoration_stripped () Bool)
(assert (= source_link_decoration_stripped target_link_decoration_stripped))

; bounce_tracking_prevented: source semantics (matches Coq)
(declare-fun source_bounce_tracking_prevented () Bool)
(declare-fun target_bounce_tracking_prevented () Bool)
(assert (= source_bounce_tracking_prevented target_bounce_tracking_prevented))

; cname_cloaking_detected: source semantics (matches Coq)
(declare-fun source_cname_cloaking_detected () Bool)
(declare-fun target_cname_cloaking_detected () Bool)
(assert (= source_cname_cloaking_detected target_cname_cloaking_detected))

; storage_access_partitioned: source semantics (matches Coq)
(declare-fun source_storage_access_partitioned () Bool)
(declare-fun target_storage_access_partitioned () Bool)
(assert (= source_storage_access_partitioned target_storage_access_partitioned))

; referrer_policy_strict: source semantics (matches Coq)
(declare-fun source_referrer_policy_strict () Bool)
(declare-fun target_referrer_policy_strict () Bool)
(assert (= source_referrer_policy_strict target_referrer_policy_strict))

; ip_address_masked: source semantics (matches Coq)
(declare-fun source_ip_address_masked () Bool)
(declare-fun target_ip_address_masked () Bool)
(assert (= source_ip_address_masked target_ip_address_masked))

; device_graph_prevented: source semantics (matches Coq)
(declare-fun source_device_graph_prevented () Bool)
(declare-fun target_device_graph_prevented () Bool)
(assert (= source_device_graph_prevented target_device_graph_prevented))

; tracker_list_updated: source semantics (matches Coq)
(declare-fun source_tracker_list_updated () Bool)
(declare-fun target_tracker_list_updated () Bool)
(assert (= source_tracker_list_updated target_tracker_list_updated))

; tracking_report_available: source semantics (matches Coq)
(declare-fun source_tracking_report_available () Bool)
(declare-fun target_tracking_report_available () Bool)
(assert (= source_tracking_report_available target_tracking_report_available))

; no_tracking_without_consent: translation preserves property (matches Coq: Theorem)
(declare-fun source_no_tracking_without_consent () Bool)
(declare-fun target_no_tracking_without_consent () Bool)
(assert (= source_no_tracking_without_consent target_no_tracking_without_consent))

; tracking_requires_transparency_prompt: translation preserves property (matches Coq: Theorem)
(declare-fun source_tracking_requires_transparency_prompt () Bool)
(declare-fun target_tracking_requires_transparency_prompt () Bool)
(assert (= source_tracking_requires_transparency_prompt target_tracking_requires_transparency_prompt))

; denied_tracking_not_approved: translation preserves property (matches Coq: Theorem)
(declare-fun source_denied_tracking_not_approved () Bool)
(declare-fun target_denied_tracking_not_approved () Bool)
(assert (= source_denied_tracking_not_approved target_denied_tracking_not_approved))

; consent_revocation_effective: translation preserves property (matches Coq: Theorem)
(declare-fun source_consent_revocation_effective () Bool)
(declare-fun target_consent_revocation_effective () Bool)
(assert (= source_consent_revocation_effective target_consent_revocation_effective))

; no_consent_no_data: translation preserves property (matches Coq: Theorem)
(declare-fun source_no_consent_no_data () Bool)
(declare-fun target_no_consent_no_data () Bool)
(assert (= source_no_consent_no_data target_no_consent_no_data))

; cross_site_tracking_blocked_thm: translation preserves property (matches Coq: Theorem)
(declare-fun source_cross_site_tracking_blocked_thm () Bool)
(declare-fun target_cross_site_tracking_blocked_thm () Bool)
(assert (= source_cross_site_tracking_blocked_thm target_cross_site_tracking_blocked_thm))

; fingerprinting_prevented_thm: translation preserves property (matches Coq: Theorem)
(declare-fun source_fingerprinting_prevented_thm () Bool)
(declare-fun target_fingerprinting_prevented_thm () Bool)
(assert (= source_fingerprinting_prevented_thm target_fingerprinting_prevented_thm))

; third_party_cookies_blocked_thm: translation preserves property (matches Coq: Theorem)
(declare-fun source_third_party_cookies_blocked_thm () Bool)
(declare-fun target_third_party_cookies_blocked_thm () Bool)
(assert (= source_third_party_cookies_blocked_thm target_third_party_cookies_blocked_thm))

; tracking_pixel_detected_thm: translation preserves property (matches Coq: Theorem)
(declare-fun source_tracking_pixel_detected_thm () Bool)
(declare-fun target_tracking_pixel_detected_thm () Bool)
(assert (= source_tracking_pixel_detected_thm target_tracking_pixel_detected_thm))

; advertising_id_resettable_thm: translation preserves property (matches Coq: Theorem)
(declare-fun source_advertising_id_resettable_thm () Bool)
(declare-fun target_advertising_id_resettable_thm () Bool)
(assert (= source_advertising_id_resettable_thm target_advertising_id_resettable_thm))

; app_tracking_permission_required_thm: translation preserves property (matches Coq: Theorem)
(declare-fun source_app_tracking_permission_required_thm () Bool)
(declare-fun target_app_tracking_permission_required_thm () Bool)
(assert (= source_app_tracking_permission_required_thm target_app_tracking_permission_required_thm))

; link_decoration_stripped_thm: translation preserves property (matches Coq: Theorem)
(declare-fun source_link_decoration_stripped_thm () Bool)
(declare-fun target_link_decoration_stripped_thm () Bool)
(assert (= source_link_decoration_stripped_thm target_link_decoration_stripped_thm))

; bounce_tracking_prevented_thm: translation preserves property (matches Coq: Theorem)
(declare-fun source_bounce_tracking_prevented_thm () Bool)
(declare-fun target_bounce_tracking_prevented_thm () Bool)
(assert (= source_bounce_tracking_prevented_thm target_bounce_tracking_prevented_thm))

; cname_cloaking_detected_thm: translation preserves property (matches Coq: Theorem)
(declare-fun source_cname_cloaking_detected_thm () Bool)
(declare-fun target_cname_cloaking_detected_thm () Bool)
(assert (= source_cname_cloaking_detected_thm target_cname_cloaking_detected_thm))

; storage_access_partitioned_thm: translation preserves property (matches Coq: Theorem)
(declare-fun source_storage_access_partitioned_thm () Bool)
(declare-fun target_storage_access_partitioned_thm () Bool)
(assert (= source_storage_access_partitioned_thm target_storage_access_partitioned_thm))

; referrer_policy_strict_thm: translation preserves property (matches Coq: Theorem)
(declare-fun source_referrer_policy_strict_thm () Bool)
(declare-fun target_referrer_policy_strict_thm () Bool)
(assert (= source_referrer_policy_strict_thm target_referrer_policy_strict_thm))

; ip_address_masked_thm: translation preserves property (matches Coq: Theorem)
(declare-fun source_ip_address_masked_thm () Bool)
(declare-fun target_ip_address_masked_thm () Bool)
(assert (= source_ip_address_masked_thm target_ip_address_masked_thm))

; device_graph_prevented_thm: translation preserves property (matches Coq: Theorem)
(declare-fun source_device_graph_prevented_thm () Bool)
(declare-fun target_device_graph_prevented_thm () Bool)
(assert (= source_device_graph_prevented_thm target_device_graph_prevented_thm))

; tracker_list_updated_thm: translation preserves property (matches Coq: Theorem)
(declare-fun source_tracker_list_updated_thm () Bool)
(declare-fun target_tracker_list_updated_thm () Bool)
(assert (= source_tracker_list_updated_thm target_tracker_list_updated_thm))

; tracking_report_available_thm: translation preserves property (matches Coq: Theorem)
(declare-fun source_tracking_report_available_thm () Bool)
(declare-fun target_tracking_report_available_thm () Bool)
(assert (= source_tracking_report_available_thm target_tracking_report_available_thm))

; referrer_policy_options: translation preserves property (matches Coq: Theorem)
(declare-fun source_referrer_policy_options () Bool)
(declare-fun target_referrer_policy_options () Bool)
(assert (= source_referrer_policy_options target_referrer_policy_options))

; tracker_list_non_empty: translation preserves property (matches Coq: Theorem)
(declare-fun source_tracker_list_non_empty () Bool)
(declare-fun target_tracker_list_non_empty () Bool)
(assert (= source_tracker_list_non_empty target_tracker_list_non_empty))

; no_tracking_without_permission_request: translation preserves property (matches Coq: Theorem)
(declare-fun source_no_tracking_without_permission_request () Bool)
(declare-fun target_no_tracking_without_permission_request () Bool)
(assert (= source_no_tracking_without_permission_request target_no_tracking_without_permission_request))

; revocation_prevents_future_tracking: translation preserves property (matches Coq: Theorem)
(declare-fun source_revocation_prevents_future_tracking () Bool)
(declare-fun target_revocation_prevents_future_tracking () Bool)
(assert (= source_revocation_prevents_future_tracking target_revocation_prevents_future_tracking))

; ip_masked_via_relay: translation preserves property (matches Coq: Theorem)
(declare-fun source_ip_masked_via_relay () Bool)
(declare-fun target_ip_masked_via_relay () Bool)
(assert (= source_ip_masked_via_relay target_ip_masked_via_relay))

; Verify all translation validations are satisfiable
(check-sat)
(exit)
